(declare-const a Int)
(declare-const c Int)
(declare-const uninterp Int)
(declare-const uninterp0 Int)
(declare-const |c'| Int)
(declare-const term_to_project_onto_integralized Int)
(declare-const term_to_project_onto0_integralized Int)
(declare-const |x'| Int)
(declare-const |y'| Int)
(declare-const uninterp1 Int)
(declare-const y Int)
(declare-const term_to_project_onto1_integralized Int)
(declare-const k Int)
(declare-const x Int)
(assert (and (<= (+ (- c) 1) 0) (= (+ (- uninterp) a (- x) uninterp0) 0)
               (<= (+ (- k) c 1) 0) (= (+ |c'| (- c) -1) 0)
               (= (+ |y'| (- uninterp1)) 0)
               (= (+ |x'| (- a) (- uninterp0)) 0)
               (= (+ term_to_project_onto1_integralized (- (+ |x'| (- x)))) 0)
               (= (+ term_to_project_onto0_integralized (- (+ |y'| (- y)))) 0)
               (= (+ term_to_project_onto_integralized (- (+ |c'| (- c)))) 0)))
(check-sat)